# Solution for model MoonSat Scheduler
# Objective value = 3.3082866980600007e+07
x[0] 1
x[1] 1
x[2] 0
x[3] 1
x[4] 1
x[5] 0
x[6] 0
x[7] 1
x[8] 1
x[9] 0
x[10] 1
x[11] 1
x[12] 1
x[13] 1
x[14] 0
x[15] 0
x[16] 1
x[17] 1
x[18] 1
x[19] 0
x[20] 0
x[21] 0
x[22] 0
x[23] 1
x[24] 1
x[25] 1
x[26] 1
x[27] 0
x[28] 0
x[29] 0
x[30] 1
x[31] 0
x[32] 1
x[33] 1
x[34] 1
x[35] 0
x[36] 0
x[37] 0
x[38] 1
x[39] 0
x[40] 0
x[41] 0
x[42] 1
x[43] 0
x[44] 0
x[45] 0
x[46] 1
x[47] 0
x[48] 0
x[49] 1
x[50] 0
x[51] 0
x[52] 1
x[53] 0
x[54] 1
x[55] 0
x[56] 1
x[57] 1
x[58] 1
x[59] 1
x[60] 1
x[61] 0
x[62] 0
x[63] 0
x[64] 0
x[65] 0
x[66] 0
x[67] 0
x[68] 1
x[69] 0
x[70] 0
x[71] 0
x[72] 0
x[73] 1
x[74] 1
x[75] 0
x[76] 0
x[77] 0
x[78] 0
x[79] 1
x[80] 0
x[81] 0
x[82] 0
x[83] 0
x[84] 0
x[85] 0
x[86] 1
x[87] 1
x[88] 0
x[89] 0
x[90] 0
x[91] 0
x[92] 1
x[93] 1
x[94] 0
x[95] 1
x[96] 1
x[97] 1
x[98] 1
x[99] 1
x[100] 1
x[101] 0
x[102] 0
x[103] 1
x[104] 0
x[105] 1
x[106] 1
x[107] 0
x[108] 1
x[109] 1
x[110] 0
x[111] 1
x[112] 0
x[113] 1
x[114] 1
x[115] 0
x[116] 0
x[117] 1
x[118] 1
x[119] 0
x[120] 1
x[121] 1
x[122] 1
x[123] 1
x[124] 1
x[125] 0
x[126] 0
x[127] 1
x[128] 1
x[129] 1
x[130] 0
x[131] 1
x[132] 1
x[133] 1
x[134] 1
x[135] 1
x[136] 1
x[137] 1
x[138] 0
x[139] 0
x[140] 1
x[141] 1
x[142] 1
x[143] 1
x[144] 0
x[145] 1
x[146] 0
x[147] 0
x[148] 0
x[149] 0
x[150] 0
x[151] 0
x[152] 1
x[153] 1
x[154] 0
x[155] 0
x[156] 0
x[157] 0
x[158] 0
x[159] 1
x[160] 1
x[161] 1
x[162] 1
x[163] 1
x[164] 0
x[165] 0
x[166] 0
x[167] 1
x[168] 1
x[169] 1
x[170] 1
x[171] 0
x[172] 1
x[173] 1
x[174] 0
x[175] 0
x[176] 1
x[177] 0
x[178] 0
x[179] 1
x[180] 0
x[181] 0
x[182] 0
x[183] 0
x[184] 0
x[185] 0
x[186] 0
x[187] 0
x[188] 0
x[189] 1
x[190] 0
x[191] 0
x[192] 0
x[193] 0
x[194] 0
x[195] 0
x[196] 1
x[197] 1
x[198] 1
x[199] 1
x[200] 1
x[201] 0
x[202] 0
x[203] 0
x[204] 0
x[205] 0
x[206] 0
x[207] 0
x[208] 0
x[209] 0
x[210] 1
x[211] 0
x[212] 1
x[213] 1
x[214] 1
x[215] 1
x[216] 1
x[217] 1
x[218] 0
x[219] 1
x[220] 0
x[221] 1
x[222] 1
x[223] 1
x[224] 1
x[225] 0
x[226] 1
x[227] 1
x[228] 0
x[229] 1
x[230] 0
x[231] 0
x[232] 1
x[233] 1
x[234] 1
x[235] 0
x[236] 1
x[237] 0
x[238] 1
x[239] 1
x[240] 1
x[241] 0
x[242] 0
x[243] 1
x[244] 1
x[245] 1
x[246] 1
x[247] 1
x[248] 1
x[249] 1
x[250] 1
x[251] 1
x[252] 1
x[253] 0
x[254] 0
x[255] 1
x[256] 1
x[257] 1
x[258] 1
x[259] 1
x[260] 1
x[261] 1
x[262] 1
x[263] 1
x[264] 0
x[265] 1
x[266] 0
x[267] 0
x[268] 1
x[269] 0
x[270] 1
x[271] 1
x[272] 1
x[273] 1
x[274] 0
x[275] 1
x[276] 1
x[277] 1
x[278] 0
x[279] 1
x[280] 0
x[281] 1
x[282] 1
x[283] 1
x[284] 1
x[285] 0
x[286] 0
x[287] 1
x[288] 0
x[289] 1
x[290] 0
x[291] 0
x[292] 0
x[293] 0
x[294] 0
x[295] 0
x[296] 1
x[297] 1
y[0] 0
y[1] 0
y[2] 1
y[3] 0
y[4] 0
y[5] 1
y[6] 1
y[7] 0
y[8] 0
y[9] 1
y[10] 0
y[11] 0
y[12] 0
y[13] 0
y[14] 1
y[15] 1
y[16] 0
y[17] 0
y[18] 0
y[19] 1
y[20] 1
y[21] 1
y[22] 1
y[23] 0
y[24] 0
y[25] 0
y[26] 0
y[27] 1
y[28] 1
y[29] 1
y[30] 0
y[31] 1
y[32] 0
y[33] 0
y[34] 0
y[35] 1
y[36] 1
y[37] 1
y[38] 0
y[39] 1
y[40] 1
y[41] 1
y[42] 0
y[43] 1
y[44] 1
y[45] 1
y[46] 0
y[47] 1
y[48] 1
y[49] 0
y[50] 1
y[51] 1
y[52] 0
y[53] 1
y[54] 0
y[55] 1
y[56] 0
y[57] 0
y[58] 0
y[59] 0
y[60] 0
y[61] 1
y[62] 1
y[63] 1
y[64] 1
y[65] 1
y[66] 1
y[67] 1
y[68] 0
y[69] 1
y[70] 1
y[71] 1
y[72] 1
y[73] 0
y[74] 0
y[75] 1
y[76] 1
y[77] 1
y[78] 1
y[79] 0
y[80] 1
y[81] 1
y[82] 1
y[83] 1
y[84] 1
y[85] 1
y[86] 0
y[87] 0
y[88] 1
y[89] 1
y[90] 1
y[91] 1
y[92] 0
y[93] 0
y[94] 1
y[95] 0
y[96] 0
y[97] 0
y[98] 0
y[99] 0
y[100] 0
y[101] 1
y[102] 1
y[103] 0
y[104] 1
y[105] 0
y[106] 0
y[107] 1
y[108] 0
y[109] 0
y[110] 1
y[111] 0
y[112] 1
y[113] 0
y[114] 0
y[115] 1
y[116] 1
y[117] 0
y[118] 0
y[119] 1
y[120] 0
y[121] 0
y[122] 0
y[123] 0
y[124] 0
y[125] 1
y[126] 1
y[127] 0
y[128] 0
y[129] 0
y[130] 1
y[131] 0
y[132] 0
y[133] 0
y[134] 0
y[135] 0
y[136] 0
y[137] 0
y[138] 1
y[139] 1
y[140] 0
y[141] 0
y[142] 0
y[143] 0
y[144] 1
y[145] 0
y[146] 1
y[147] 1
y[148] 1
y[149] 1
y[150] 1
y[151] 1
y[152] 0
y[153] 0
y[154] 1
y[155] 1
y[156] 1
y[157] 1
y[158] 1
y[159] 0
y[160] 0
y[161] 0
y[162] 0
y[163] 0
y[164] 1
y[165] 1
y[166] 1
y[167] 0
y[168] 0
y[169] 0
y[170] 0
y[171] 1
y[172] 0
y[173] 0
y[174] 1
y[175] 1
y[176] 0
y[177] 1
y[178] 1
y[179] 0
y[180] 1
y[181] 1
y[182] 1
y[183] 1
y[184] 1
y[185] 1
y[186] 1
y[187] 1
y[188] 1
y[189] 0
y[190] 1
y[191] 1
y[192] 1
y[193] 1
y[194] 1
y[195] 1
y[196] 0
y[197] 0
y[198] 0
y[199] 0
y[200] 0
y[201] 1
y[202] 1
y[203] 1
y[204] 1
y[205] 1
y[206] 1
y[207] 1
y[208] 1
y[209] 1
y[210] 0
y[211] 1
y[212] 0
y[213] 0
y[214] 0
y[215] 0
y[216] 0
y[217] 0
y[218] 1
y[219] 0
y[220] 1
y[221] 0
y[222] 0
y[223] 0
y[224] 0
y[225] 1
y[226] 0
y[227] 0
y[228] 1
y[229] 0
y[230] 1
y[231] 1
y[232] 0
y[233] 0
y[234] 0
y[235] 1
y[236] 0
y[237] 1
y[238] 0
y[239] 0
y[240] 0
y[241] 1
y[242] 1
y[243] 0
y[244] 0
y[245] 0
y[246] 0
y[247] 0
y[248] 0
y[249] 0
y[250] 0
y[251] 0
y[252] 0
y[253] 1
y[254] 1
y[255] 0
y[256] 0
y[257] 0
y[258] 0
y[259] 0
y[260] 0
y[261] 0
y[262] 0
y[263] 0
y[264] 1
y[265] 0
y[266] 1
y[267] 1
y[268] 0
y[269] 1
y[270] 0
y[271] 0
y[272] 0
y[273] 0
y[274] 1
y[275] 0
y[276] 0
y[277] 0
y[278] 1
y[279] 0
y[280] 1
y[281] 0
y[282] 0
y[283] 0
y[284] 0
y[285] 1
y[286] 1
y[287] 0
y[288] 1
y[289] 0
y[290] 1
y[291] 1
y[292] 1
y[293] 1
y[294] 1
y[295] 1
y[296] 0
y[297] 0
